(set-logic QF_ALIA)
(declare-fun v () Int)
(declare-fun a () (Array Int Int))
(assert (= a (store a v 0)))
(push 1)
(assert (= 0 v))
(push 1)
(assert false)
(check-sat)
(pop 1)
(assert (> 0 (select a 0)))
(check-sat)
